Al                                      
   1.00000000000000     
     7.9915938943181324    0.0000000000000000   -0.0000000000000000
     0.0000000000000000    7.9915938943181324    0.0000000000000000
     0.0000000000000000   -0.0000000000000000   31.4919032958292711
   Al   Cu
   111    17
Direct
  0.5000000000000000  0.2500000000000000  0.9408985939262311
  0.5000000000000000  0.7500000000000000  0.9408577438250437
 -0.0000000000000000  0.2500000000000000  0.9408724036035084
 -0.0000000000000000  0.7500000000000000  0.9408985939262311
  0.2499893732765237  0.0000106267234763  0.9408942830757144
  0.2499893732765237  0.4999893732765238  0.9408942830757144
  0.7500106267234762  0.0000106267234763  0.9408942830757144
  0.7500106267234762  0.4999893732765238  0.9408942830757144
 -0.0000000000000000 -0.0000231789816411  0.8743126141144871
 -0.0000000000000000  0.5000231789816414  0.8743126141144871
  0.5000000000000000  0.0000936239594626  0.8743662646494795
  0.5000000000000000  0.4999063760405373  0.8743662646494795
  0.7499768210183586  0.2500000000000000  0.8743126141144871
  0.7500936239594627  0.7500000000000000  0.8743662646494795
  0.2500231789816409  0.2500000000000000  0.8743126141144871
  0.2499063760405374  0.7500000000000000  0.8743662646494795
 -0.0000000000000000  0.2500000000000000  0.8078661378905811
 -0.0000000000000000  0.7500000000000000  0.8079171006800711
  0.5000000000000000  0.7500000000000000  0.8078987610067475
  0.5000000000000000  0.2500000000000000  0.8079171006800711
  0.7499230138364670  0.5000769861635330  0.8078982346401589
  0.7499230138364670 -0.0000769861635330  0.8078982346401589
  0.2500769861635331 -0.0000769861635330  0.8078982346401589
  0.2500769861635331  0.5000769861635330  0.8078982346401589
 -0.0000000000000000  0.2500000000000000  0.7007883454630889
 -0.0000000000000000  0.7500000000000000  0.6998245608256115
  0.5000000000000000  0.7500000000000000  0.7002586669611752
  0.5000000000000000  0.2500000000000000  0.6998245608256115
  0.7498522860889260  0.5001477139110739  0.7002371035369471
  0.7498522860889260 -0.0001477139110742  0.7002371035369471
  0.2501477139110741 -0.0001477139110742  0.7002371035369471
  0.2501477139110741  0.5001477139110739  0.7002371035369471
 -0.0000000000000000 -0.0007476063292991  0.6346646969846227
 -0.0000000000000000  0.5007476063292990  0.6346646969846227
  0.5000000000000000  0.5042757012052880  0.6334609132487372
  0.5000000000000000 -0.0042757012052880  0.6334609132487372
  0.7457242987947120  0.7500000000000000  0.6334609132487372
  0.7492523936707010  0.2500000000000000  0.6346646969846227
  0.2507476063292990  0.2500000000000000  0.6346646969846227
  0.2542757012052878  0.7500000000000000  0.6334609132487372
 -0.0000000000000000  0.2500000000000000  0.5698831825097138
 -0.0000000000000000  0.7500000000000000  0.5698631708945699
  0.5000000000000000  0.2500000000000000  0.5698631708945699
  0.7458556431719721  0.5041443568280279  0.5696536581939756
  0.7458556431719721 -0.0041443568280280  0.5696536581939756
  0.2541443568280281 -0.0041443568280280  0.5696536581939756
  0.2541443568280281  0.5041443568280279  0.5696536581939756
 -0.0000000000000000 -0.0010389058398603  0.5056941027324009
 -0.0000000000000000  0.5010389058398601  0.5056941027324009
  0.5000000000000000  0.5030401879450399  0.5060226217985344
  0.5000000000000000 -0.0030401879450400  0.5060226217985344
  0.7469598120549601  0.7500000000000000  0.5060226217985344
  0.7489610941601399  0.2500000000000000  0.5056941027324009
  0.2510389058398604  0.2500000000000000  0.5056941027324009
  0.2530401879450398  0.7500000000000000  0.5060226217985344
 -0.0000000000000000  0.2500000000000000  0.4408051765495502
 -0.0000000000000000  0.7500000000000000  0.4408158491291848
  0.5000000000000000  0.7500000000000000  0.4404661333772287
  0.5000000000000000  0.2500000000000000  0.4408158491291848
  0.7499846642617523  0.5000153357382477  0.4408486536385181
  0.7499846642617523 -0.0000153357382478  0.4408486536385181
  0.2500153357382480 -0.0000153357382478  0.4408486536385181
  0.2500153357382480  0.5000153357382477  0.4408486536385181
 -0.0000000000000000  0.0000715745278563  0.3757820562131836
 -0.0000000000000000  0.4999284254721437  0.3757820562131836
  0.5000000000000000  0.4998801803843471  0.3759091994965235
  0.5000000000000000  0.0001198196156529  0.3759091994965235
  0.7501198196156532  0.7500000000000000  0.3759091994965235
  0.7500715745278560  0.2500000000000000  0.3757820562131836
  0.2499284254721436  0.2500000000000000  0.3757820562131836
  0.2498801803843471  0.7500000000000000  0.3759091994965235
 -0.0000000000000000  0.2500000000000000  0.3106892546590045
 -0.0000000000000000  0.7500000000000000  0.3108600144188534
  0.5000000000000000  0.7500000000000000  0.3108729264317943
  0.5000000000000000  0.2500000000000000  0.3108600144188534
  0.7500755697242729  0.4999244302757271  0.3108585858553237
  0.7500755697242729  0.0000755697242729  0.3108585858553237
  0.2499244302757271  0.0000755697242729  0.3108585858553237
  0.2499244302757271  0.4999244302757271  0.3108585858553237
 -0.0000000000000000  0.0000856051875431  0.2458686687668137
 -0.0000000000000000  0.4999143948124571  0.2458686687668137
  0.5000000000000000  0.4999179087896630  0.2459760097689244
  0.5000000000000000  0.0000820912103372  0.2459760097689244
  0.7500820912103370  0.7500000000000000  0.2459760097689244
  0.7500856051875429  0.2500000000000000  0.2458686687668137
  0.2499143948124570  0.2500000000000000  0.2458686687668137
  0.2499179087896628  0.7500000000000000  0.2459760097689244
 -0.0000000000000000  0.2500000000000000  0.1805559488926545
 -0.0000000000000000  0.7500000000000000  0.1809767214141819
  0.5000000000000000  0.7500000000000000  0.1809413019444557
  0.5000000000000000  0.2500000000000000  0.1809767214141819
  0.7499807571004574  0.5000192428995427  0.1809752507965654
  0.7499807571004574 -0.0000192428995426  0.1809752507965654
  0.2500192428995426 -0.0000192428995426  0.1809752507965654
  0.2500192428995426  0.5000192428995427  0.1809752507965654
 -0.0000000000000000 -0.0000623942564768  0.1151650611953658
 -0.0000000000000000  0.5000623942564771  0.1151650611953658
  0.5000000000000000  0.4999839960584557  0.1151839147205501
  0.5000000000000000  0.0000160039415442  0.1151839147205501
  0.7500160039415438  0.7500000000000000  0.1151839147205501
  0.7499376057435229  0.2500000000000000  0.1151650611953658
  0.2500623942564767  0.2500000000000000  0.1151650611953658
  0.2499839960584557  0.7500000000000000  0.1151839147205501
 -0.0000000000000000  0.2500000000000000  0.0487669834766227
 -0.0000000000000000  0.7500000000000000  0.0487659983158631
  0.5000000000000000  0.7500000000000000  0.0489081365666489
  0.5000000000000000  0.2500000000000000  0.0487659983158631
  0.7500155530796651  0.4999844469203353  0.0487708545116896
  0.7500155530796651  0.0000155530796649  0.0487708545116896
  0.2499844469203351  0.0000155530796649  0.0487708545116896
  0.2499844469203351  0.4999844469203353  0.0487708545116896
 -0.0000000000000000 -0.0006599232671022  0.7540456214342788
 -0.0000000000000000  0.5006599232671025  0.7540456214342788
  0.5000000000000000  0.4999047111040021  0.7538399013388726
  0.5000000000000000  0.0000952888959979  0.7538399013388726
  0.7500952888959979  0.7500000000000000  0.7538399013388726
  0.7493400767328975  0.2500000000000000  0.7540456214342788
  0.2506599232671020  0.2500000000000000  0.7540456214342788
  0.2499047111040020  0.7500000000000000  0.7538399013388726
 -0.0000000000000000 -0.0000094577237680  0.9950389903611219
 -0.0000000000000000  0.5000094577237676  0.9950389903611219
  0.5000000000000000  0.5001226021427607  0.9950965809372917
  0.5000000000000000 -0.0001226021427606  0.9950965809372917
  0.7498773978572395  0.7500000000000000  0.9950965809372917
  0.7499905422762323  0.2500000000000000  0.9950389903611219
  0.2500094577237680  0.2500000000000000  0.9950389903611219
  0.2501226021427608  0.7500000000000000  0.9950965809372917
  0.5000000000000000  0.7500000000000000  0.5674696295927670
 
  0.00000000E+00  0.00000000E+00  0.00000000E+00
  0.00000000E+00  0.00000000E+00  0.00000000E+00
  0.00000000E+00  0.00000000E+00  0.00000000E+00
  0.00000000E+00  0.00000000E+00  0.00000000E+00
  0.00000000E+00  0.00000000E+00  0.00000000E+00
  0.00000000E+00  0.00000000E+00  0.00000000E+00
  0.00000000E+00  0.00000000E+00  0.00000000E+00
  0.00000000E+00  0.00000000E+00  0.00000000E+00
  0.00000000E+00  0.00000000E+00  0.00000000E+00
  0.00000000E+00  0.00000000E+00  0.00000000E+00
  0.00000000E+00  0.00000000E+00  0.00000000E+00
  0.00000000E+00  0.00000000E+00  0.00000000E+00
  0.00000000E+00  0.00000000E+00  0.00000000E+00
  0.00000000E+00  0.00000000E+00  0.00000000E+00
  0.00000000E+00  0.00000000E+00  0.00000000E+00
  0.00000000E+00  0.00000000E+00  0.00000000E+00
  0.00000000E+00  0.00000000E+00  0.00000000E+00
  0.00000000E+00  0.00000000E+00  0.00000000E+00
  0.00000000E+00  0.00000000E+00  0.00000000E+00
  0.00000000E+00  0.00000000E+00  0.00000000E+00
  0.00000000E+00  0.00000000E+00  0.00000000E+00
  0.00000000E+00  0.00000000E+00  0.00000000E+00
  0.00000000E+00  0.00000000E+00  0.00000000E+00
  0.00000000E+00  0.00000000E+00  0.00000000E+00
  0.00000000E+00  0.00000000E+00  0.00000000E+00
  0.00000000E+00  0.00000000E+00  0.00000000E+00
  0.00000000E+00  0.00000000E+00  0.00000000E+00
  0.00000000E+00  0.00000000E+00  0.00000000E+00
  0.00000000E+00  0.00000000E+00  0.00000000E+00
  0.00000000E+00  0.00000000E+00  0.00000000E+00
  0.00000000E+00  0.00000000E+00  0.00000000E+00
  0.00000000E+00  0.00000000E+00  0.00000000E+00
  0.00000000E+00  0.00000000E+00  0.00000000E+00
  0.00000000E+00  0.00000000E+00  0.00000000E+00
  0.00000000E+00  0.00000000E+00  0.00000000E+00
  0.00000000E+00  0.00000000E+00  0.00000000E+00
  0.00000000E+00  0.00000000E+00  0.00000000E+00
  0.00000000E+00  0.00000000E+00  0.00000000E+00
  0.00000000E+00  0.00000000E+00  0.00000000E+00
  0.00000000E+00  0.00000000E+00  0.00000000E+00
  0.00000000E+00  0.00000000E+00  0.00000000E+00
  0.00000000E+00  0.00000000E+00  0.00000000E+00
  0.00000000E+00  0.00000000E+00  0.00000000E+00
  0.00000000E+00  0.00000000E+00  0.00000000E+00
  0.00000000E+00  0.00000000E+00  0.00000000E+00
  0.00000000E+00  0.00000000E+00  0.00000000E+00
  0.00000000E+00  0.00000000E+00  0.00000000E+00
  0.00000000E+00  0.00000000E+00  0.00000000E+00
  0.00000000E+00  0.00000000E+00  0.00000000E+00
  0.00000000E+00  0.00000000E+00  0.00000000E+00
  0.00000000E+00  0.00000000E+00  0.00000000E+00
  0.00000000E+00  0.00000000E+00  0.00000000E+00
  0.00000000E+00  0.00000000E+00  0.00000000E+00
  0.00000000E+00  0.00000000E+00  0.00000000E+00
  0.00000000E+00  0.00000000E+00  0.00000000E+00
  0.00000000E+00  0.00000000E+00  0.00000000E+00
  0.00000000E+00  0.00000000E+00  0.00000000E+00
  0.00000000E+00  0.00000000E+00  0.00000000E+00
  0.00000000E+00  0.00000000E+00  0.00000000E+00
  0.00000000E+00  0.00000000E+00  0.00000000E+00
  0.00000000E+00  0.00000000E+00  0.00000000E+00
  0.00000000E+00  0.00000000E+00  0.00000000E+00
  0.00000000E+00  0.00000000E+00  0.00000000E+00
  0.00000000E+00  0.00000000E+00  0.00000000E+00
  0.00000000E+00  0.00000000E+00  0.00000000E+00
  0.00000000E+00  0.00000000E+00  0.00000000E+00
  0.00000000E+00  0.00000000E+00  0.00000000E+00
  0.00000000E+00  0.00000000E+00  0.00000000E+00
  0.00000000E+00  0.00000000E+00  0.00000000E+00
  0.00000000E+00  0.00000000E+00  0.00000000E+00
  0.00000000E+00  0.00000000E+00  0.00000000E+00
  0.00000000E+00  0.00000000E+00  0.00000000E+00
  0.00000000E+00  0.00000000E+00  0.00000000E+00
  0.00000000E+00  0.00000000E+00  0.00000000E+00
  0.00000000E+00  0.00000000E+00  0.00000000E+00
  0.00000000E+00  0.00000000E+00  0.00000000E+00
  0.00000000E+00  0.00000000E+00  0.00000000E+00
  0.00000000E+00  0.00000000E+00  0.00000000E+00
  0.00000000E+00  0.00000000E+00  0.00000000E+00
  0.00000000E+00  0.00000000E+00  0.00000000E+00
  0.00000000E+00  0.00000000E+00  0.00000000E+00
  0.00000000E+00  0.00000000E+00  0.00000000E+00
  0.00000000E+00  0.00000000E+00  0.00000000E+00
  0.00000000E+00  0.00000000E+00  0.00000000E+00
  0.00000000E+00  0.00000000E+00  0.00000000E+00
  0.00000000E+00  0.00000000E+00  0.00000000E+00
  0.00000000E+00  0.00000000E+00  0.00000000E+00
  0.00000000E+00  0.00000000E+00  0.00000000E+00
  0.00000000E+00  0.00000000E+00  0.00000000E+00
  0.00000000E+00  0.00000000E+00  0.00000000E+00
  0.00000000E+00  0.00000000E+00  0.00000000E+00
  0.00000000E+00  0.00000000E+00  0.00000000E+00
  0.00000000E+00  0.00000000E+00  0.00000000E+00
  0.00000000E+00  0.00000000E+00  0.00000000E+00
  0.00000000E+00  0.00000000E+00  0.00000000E+00
  0.00000000E+00  0.00000000E+00  0.00000000E+00
  0.00000000E+00  0.00000000E+00  0.00000000E+00
  0.00000000E+00  0.00000000E+00  0.00000000E+00
  0.00000000E+00  0.00000000E+00  0.00000000E+00
  0.00000000E+00  0.00000000E+00  0.00000000E+00
  0.00000000E+00  0.00000000E+00  0.00000000E+00
  0.00000000E+00  0.00000000E+00  0.00000000E+00
  0.00000000E+00  0.00000000E+00  0.00000000E+00
  0.00000000E+00  0.00000000E+00  0.00000000E+00
  0.00000000E+00  0.00000000E+00  0.00000000E+00
  0.00000000E+00  0.00000000E+00  0.00000000E+00
  0.00000000E+00  0.00000000E+00  0.00000000E+00
  0.00000000E+00  0.00000000E+00  0.00000000E+00
  0.00000000E+00  0.00000000E+00  0.00000000E+00
  0.00000000E+00  0.00000000E+00  0.00000000E+00
  0.00000000E+00  0.00000000E+00  0.00000000E+00
  0.00000000E+00  0.00000000E+00  0.00000000E+00
  0.00000000E+00  0.00000000E+00  0.00000000E+00
  0.00000000E+00  0.00000000E+00  0.00000000E+00
  0.00000000E+00  0.00000000E+00  0.00000000E+00
  0.00000000E+00  0.00000000E+00  0.00000000E+00
  0.00000000E+00  0.00000000E+00  0.00000000E+00
  0.00000000E+00  0.00000000E+00  0.00000000E+00
  0.00000000E+00  0.00000000E+00  0.00000000E+00
  0.00000000E+00  0.00000000E+00  0.00000000E+00
  0.00000000E+00  0.00000000E+00  0.00000000E+00
  0.00000000E+00  0.00000000E+00  0.00000000E+00
  0.00000000E+00  0.00000000E+00  0.00000000E+00
  0.00000000E+00  0.00000000E+00  0.00000000E+00
  0.00000000E+00  0.00000000E+00  0.00000000E+00
  0.00000000E+00  0.00000000E+00  0.00000000E+00
  0.00000000E+00  0.00000000E+00  0.00000000E+00
  0.00000000E+00  0.00000000E+00  0.00000000E+00
